% demand
num_movements = 41;
loading_factor = [1950, 1300, 1000, 1200, 1700, 1300, 1650, 900, 900, 950, 2000, 950, 1950, 1600, 1850, 1300, 1950, 1000, 1050, 1850, 1600, 900, 1250, 1450, 1700, 900, 1350, 1550, 1650, 1800, 800, 800, 800, 1850, 1050, 1200, 1500, 900, 1300, 1250, 1450];
pickup_time = [0, 0, 0, 0, 0, 1, 1, 1, 2, 2, 2, 2, 2, 2, 3, 3, 3, 3, 3, 4, 4, 4, 4, 4, 4, 4, 4, 5, 5, 5, 5, 5, 5, 5, 5, 7, 7, 8, 8, 8, 8];
delivery_time = [2, 2, 2, 2, 2, 3, 2, 2, 4, 3, 4, 4, 3, 3, 4, 4, 4, 4, 4, 5, 5, 5, 5, 5, 5, 5, 5, 7, 8, 9, 9, 10, 8, 6, 6, 10, 9, 9, 10, 9, 10];

% transporter definition
total_capacity = 11000;
num_decks = 4;
capacity = [3000, 3000, 1000, 4000];

% ways out of decks
num_ways_out = 2;
paths_out = array3d(decks, ways_out, decks, [
% ways out of deck d1
2, 4, 0, 0, 3, 4, 0, 0, 

% ways out of deck d2
4, 0, 0, 0, 0, 0, 0, 0,	

% ways out of deck d3
4, 0, 0, 0, 0, 0, 0, 0,	

% ways out of deck d4
0, 0, 0, 0,	0, 0, 0, 0,	

]);

